WARNING: for repeatability, setting FPU to use double precision
============================[ Problem Statistics ]=============================
|                                                                             |
|  Number of variables:           100                                         |
|  Number of clauses:             449                                         |
|  Parse time:                   0.00 s                                       |
|  Eliminated clauses:           0.00 Mb                                      |
|  Simplification time:          0.00 s                                       |
|                                                                             |
============================[ Search Statistics ]==============================
| Conflicts |          ORIGINAL         |          LEARNT          | Progress |
|           |    Vars  Clauses Literals |    Limit  Clauses Lit/Cl |          |
===============================================================================
|       100 |      95      444     1360 |      162      100      7 |  0.010 % |
|       250 |      95      444     1360 |      179      164      7 |  0.010 % |
|       475 |      95      444     1360 |      196      110      6 |  0.020 % |
===============================================================================
restarts              : 5
conflicts             : 570            (477787 /sec)
decisions             : 729            (0.00 % random) (611065 /sec)
propagations          : 12894          (10808047 /sec)
conflict literals     : 3664           (20.92 % deleted)
Memory used           : 13.00 MB
CPU time              : 0.001193 s

SATISFIABLE
